c 0.0030472278594970703 (encode time in sec)
p cnf 63 280
1 2 3 4 0
1 2 -3 4 0
1 -2 3 4 0
1 -2 -3 4 0
-1 2 3 4 0
-1 2 -3 0
-1 -2 3 0
-1 -2 -3 0
5 6 7 8 0
5 6 -7 8 0
5 -6 7 8 0
5 -6 -7 8 0
-5 6 7 8 0
-5 6 -7 0
-5 -6 7 0
-5 -6 -7 0
9 10 11 12 0
9 10 -11 12 0
9 -10 11 12 0
9 -10 -11 12 0
-9 10 11 12 0
-9 10 -11 0
-9 -10 11 0
-9 -10 -11 0
13 14 15 1 2 3 5 6 7 16 0
13 14 15 1 2 3 5 6 -7 17 0
13 14 15 1 2 3 5 -6 7 19 0
13 14 15 1 2 3 5 -6 -7 18 0
13 14 15 1 2 3 -5 6 7 28 0
13 14 15 1 2 -3 5 6 7 20 0
13 14 15 1 2 -3 5 6 -7 21 0
13 14 15 1 2 -3 5 -6 7 29 0
13 14 15 1 2 -3 5 -6 -7 29 0
13 14 15 1 2 -3 -5 6 7 18 0
13 14 15 1 -2 3 5 6 7 17 0
13 14 15 1 -2 3 5 6 -7 22 0
13 14 15 1 -2 3 5 -6 7 23 0
13 14 15 1 -2 3 5 -6 -7 19 0
13 14 15 1 -2 3 -5 6 7 23 0
13 14 15 1 -2 -3 5 6 7 32 0
13 14 15 1 -2 -3 5 6 -7 29 0
13 14 15 1 -2 -3 5 -6 7 29 0
13 14 15 1 -2 -3 5 -6 -7 29 0
13 14 15 1 -2 -3 -5 6 7 23 0
13 14 15 -1 2 3 5 6 7 29 0
13 14 15 -1 2 3 5 6 -7 19 0
13 14 15 -1 2 3 5 -6 7 19 0
13 14 15 -1 2 3 5 -6 -7 29 0
13 14 15 -1 2 3 -5 6 7 23 0
13 14 -15 1 2 3 5 6 7 29 0
13 14 -15 1 2 3 5 6 -7 23 0
13 14 -15 1 2 3 5 -6 7 20 0
13 14 -15 1 2 3 5 -6 -7 24 0
13 14 -15 1 2 3 -5 6 7 26 0
13 14 -15 1 2 -3 5 6 7 22 0
13 14 -15 1 2 -3 5 6 -7 25 0
13 14 -15 1 2 -3 5 -6 7 29 0
13 14 -15 1 2 -3 5 -6 -7 29 0
13 14 -15 1 2 -3 -5 6 7 18 0
13 14 -15 1 -2 3 5 6 7 23 0
13 14 -15 1 -2 3 5 6 -7 20 0
13 14 -15 1 -2 3 5 -6 7 32 0
13 14 -15 1 -2 3 5 -6 -7 19 0
13 14 -15 1 -2 3 -5 6 7 23 0
13 14 -15 1 -2 -3 5 6 7 30 0
13 14 -15 1 -2 -3 5 6 -7 34 0
13 14 -15 1 -2 -3 5 -6 7 29 0
13 14 -15 1 -2 -3 5 -6 -7 29 0
13 14 -15 1 -2 -3 -5 6 7 23 0
13 14 -15 -1 2 3 5 6 7 31 0
13 14 -15 -1 2 3 5 6 -7 21 0
13 14 -15 -1 2 3 5 -6 7 19 0
13 14 -15 -1 2 3 5 -6 -7 29 0
13 14 -15 -1 2 3 -5 6 7 23 0
13 -14 15 1 2 3 5 6 7 29 0
13 -14 15 1 2 3 5 6 -7 23 0
13 -14 15 1 2 3 5 -6 7 19 0
13 -14 15 1 2 3 5 -6 -7 24 0
13 -14 15 1 2 3 -5 6 7 26 0
13 -14 15 1 2 -3 5 6 7 29 0
13 -14 15 1 2 -3 5 6 -7 19 0
13 -14 15 1 2 -3 5 -6 7 20 0
13 -14 15 1 2 -3 5 -6 -7 16 0
13 -14 15 1 2 -3 -5 6 7 18 0
13 -14 15 1 -2 3 5 6 7 23 0
13 -14 15 1 -2 3 5 6 -7 29 0
13 -14 15 1 -2 3 5 -6 7 23 0
13 -14 15 1 -2 3 5 -6 -7 19 0
13 -14 15 1 -2 3 -5 6 7 23 0
13 -14 15 1 -2 -3 5 6 7 30 0
13 -14 15 1 -2 -3 5 6 -7 31 0
13 -14 15 1 -2 -3 5 -6 7 34 0
13 -14 15 1 -2 -3 5 -6 -7 29 0
13 -14 15 1 -2 -3 -5 6 7 23 0
13 -14 15 -1 2 3 5 6 7 34 0
13 -14 15 -1 2 3 5 6 -7 21 0
13 -14 15 -1 2 3 5 -6 7 19 0
13 -14 15 -1 2 3 5 -6 -7 29 0
13 -14 15 -1 2 3 -5 6 7 23 0
13 -14 -15 1 2 3 5 6 7 29 0
13 -14 -15 1 2 3 5 6 -7 23 0
13 -14 -15 1 2 3 5 -6 7 19 0
13 -14 -15 1 2 3 5 -6 -7 18 0
13 -14 -15 1 2 3 -5 6 7 33 0
13 -14 -15 1 2 -3 5 6 7 29 0
13 -14 -15 1 2 -3 5 6 -7 19 0
13 -14 -15 1 2 -3 5 -6 7 22 0
13 -14 -15 1 2 -3 5 -6 -7 29 0
13 -14 -15 1 2 -3 -5 6 7 24 0
13 -14 -15 1 -2 3 5 6 7 23 0
13 -14 -15 1 -2 3 5 6 -7 29 0
13 -14 -15 1 -2 3 5 -6 7 32 0
13 -14 -15 1 -2 3 5 -6 -7 25 0
13 -14 -15 1 -2 3 -5 6 7 27 0
13 -14 -15 1 -2 -3 5 6 7 30 0
13 -14 -15 1 -2 -3 5 6 -7 29 0
13 -14 -15 1 -2 -3 5 -6 7 31 0
13 -14 -15 1 -2 -3 5 -6 -7 34 0
13 -14 -15 1 -2 -3 -5 6 7 32 0
13 -14 -15 -1 2 3 5 6 7 29 0
13 -14 -15 -1 2 3 5 6 -7 19 0
13 -14 -15 -1 2 3 5 -6 7 21 0
13 -14 -15 -1 2 3 5 -6 -7 22 0
13 -14 -15 -1 2 3 -5 6 7 23 0
-13 14 15 1 2 3 5 6 7 29 0
-13 14 15 1 2 3 5 6 -7 23 0
-13 14 15 1 2 3 5 -6 7 19 0
-13 14 15 1 2 3 5 -6 -7 18 0
-13 14 15 1 2 3 -5 6 7 28 0
-13 14 15 1 2 -3 5 6 7 29 0
-13 14 15 1 2 -3 5 6 -7 19 0
-13 14 15 1 2 -3 5 -6 7 29 0
-13 14 15 1 2 -3 5 -6 -7 29 0
-13 14 15 1 2 -3 -5 6 7 24 0
-13 14 15 1 -2 3 5 6 7 23 0
-13 14 15 1 -2 3 5 6 -7 29 0
-13 14 15 1 -2 3 5 -6 7 23 0
-13 14 15 1 -2 3 5 -6 -7 21 0
-13 14 15 1 -2 3 -5 6 7 35 0
-13 14 15 1 -2 -3 5 6 7 30 0
-13 14 15 1 -2 -3 5 6 -7 29 0
-13 14 15 1 -2 -3 5 -6 7 29 0
-13 14 15 1 -2 -3 5 -6 -7 31 0
-13 14 15 1 -2 -3 -5 6 7 32 0
-13 14 15 -1 2 3 5 6 7 29 0
-13 14 15 -1 2 3 5 6 -7 21 0
-13 14 15 -1 2 3 5 -6 7 25 0
-13 14 15 -1 2 3 5 -6 -7 20 0
-13 14 15 -1 2 3 -5 6 7 17 0
-13 14 -15 0
-13 -14 15 0
-13 -14 -15 0
36 37 38 9 10 11 13 14 15 39 0
36 37 38 9 10 11 13 14 -15 41 0
36 37 38 9 10 11 13 -14 15 51 0
36 37 38 9 10 11 13 -14 -15 40 0
36 37 38 9 10 11 -13 14 15 55 0
36 37 38 9 10 -11 13 14 15 42 0
36 37 38 9 10 -11 13 14 -15 43 0
36 37 38 9 10 -11 13 -14 15 44 0
36 37 38 9 10 -11 13 -14 -15 56 0
36 37 38 9 10 -11 -13 14 15 40 0
36 37 38 9 -10 11 13 14 15 45 0
36 37 38 9 -10 11 13 14 -15 41 0
36 37 38 9 -10 11 13 -14 15 55 0
36 37 38 9 -10 11 13 -14 -15 44 0
36 37 38 9 -10 11 -13 14 15 40 0
36 37 38 9 -10 -11 13 14 15 46 0
36 37 38 9 -10 -11 13 14 -15 40 0
36 37 38 9 -10 -11 13 -14 15 44 0
36 37 38 9 -10 -11 13 -14 -15 50 0
36 37 38 9 -10 -11 -13 14 15 41 0
36 37 38 -9 10 11 13 14 15 60 0
36 37 38 -9 10 11 13 14 -15 55 0
36 37 38 -9 10 11 13 -14 15 41 0
36 37 38 -9 10 11 13 -14 -15 40 0
36 37 38 -9 10 11 -13 14 15 55 0
36 37 -38 9 10 11 13 14 15 41 0
36 37 -38 9 10 11 13 14 -15 39 0
36 37 -38 9 10 11 13 -14 15 61 0
36 37 -38 9 10 11 13 -14 -15 40 0
36 37 -38 9 10 11 -13 14 15 55 0
36 37 -38 9 10 -11 13 14 15 55 0
36 37 -38 9 10 -11 13 14 -15 46 0
36 37 -38 9 10 -11 13 -14 15 44 0
36 37 -38 9 10 -11 13 -14 -15 56 0
36 37 -38 9 10 -11 -13 14 15 40 0
36 37 -38 9 -10 11 13 14 15 57 0
36 37 -38 9 -10 11 13 14 -15 39 0
36 37 -38 9 -10 11 13 -14 15 55 0
36 37 -38 9 -10 11 13 -14 -15 44 0
36 37 -38 9 -10 11 -13 14 15 40 0
36 37 -38 9 -10 -11 13 14 15 44 0
36 37 -38 9 -10 -11 13 14 -15 60 0
36 37 -38 9 -10 -11 13 -14 15 44 0
36 37 -38 9 -10 -11 13 -14 -15 50 0
36 37 -38 9 -10 -11 -13 14 15 41 0
36 37 -38 -9 10 11 13 14 15 60 0
36 37 -38 -9 10 11 13 14 -15 54 0
36 37 -38 -9 10 11 13 -14 15 41 0
36 37 -38 -9 10 11 13 -14 -15 40 0
36 37 -38 -9 10 11 -13 14 15 55 0
36 -37 38 9 10 11 13 14 15 41 0
36 -37 38 9 10 11 13 14 -15 41 0
36 -37 38 9 10 11 13 -14 15 56 0
36 -37 38 9 10 11 13 -14 -15 63 0
36 -37 38 9 10 11 -13 14 15 55 0
36 -37 38 9 10 -11 13 14 15 55 0
36 -37 38 9 10 -11 13 14 -15 51 0
36 -37 38 9 10 -11 13 -14 15 46 0
36 -37 38 9 10 -11 13 -14 -15 56 0
36 -37 38 9 10 -11 -13 14 15 40 0
36 -37 38 9 -10 11 13 14 15 57 0
36 -37 38 9 -10 11 13 14 -15 41 0
36 -37 38 9 -10 11 13 -14 15 42 0
36 -37 38 9 -10 11 13 -14 -15 44 0
36 -37 38 9 -10 11 -13 14 15 40 0
36 -37 38 9 -10 -11 13 14 15 44 0
36 -37 38 9 -10 -11 13 14 -15 60 0
36 -37 38 9 -10 -11 13 -14 15 47 0
36 -37 38 9 -10 -11 13 -14 -15 50 0
36 -37 38 9 -10 -11 -13 14 15 41 0
36 -37 38 -9 10 11 13 14 15 40 0
36 -37 38 -9 10 11 13 14 -15 46 0
36 -37 38 -9 10 11 13 -14 15 41 0
36 -37 38 -9 10 11 13 -14 -15 40 0
36 -37 38 -9 10 11 -13 14 15 55 0
36 -37 -38 9 10 11 13 14 15 41 0
36 -37 -38 9 10 11 13 14 -15 41 0
36 -37 -38 9 10 11 13 -14 15 51 0
36 -37 -38 9 10 11 13 -14 -15 48 0
36 -37 -38 9 10 11 -13 14 15 59 0
36 -37 -38 9 10 -11 13 14 15 55 0
36 -37 -38 9 10 -11 13 14 -15 51 0
36 -37 -38 9 10 -11 13 -14 15 44 0
36 -37 -38 9 10 -11 13 -14 -15 60 0
36 -37 -38 9 10 -11 -13 14 15 48 0
36 -37 -38 9 -10 11 13 14 15 57 0
36 -37 -38 9 -10 11 13 14 -15 41 0
36 -37 -38 9 -10 11 13 -14 15 55 0
36 -37 -38 9 -10 11 13 -14 -15 46 0
36 -37 -38 9 -10 11 -13 14 15 40 0
36 -37 -38 9 -10 -11 13 14 15 44 0
36 -37 -38 9 -10 -11 13 14 -15 40 0
36 -37 -38 9 -10 -11 13 -14 15 43 0
36 -37 -38 9 -10 -11 13 -14 -15 52 0
36 -37 -38 9 -10 -11 -13 14 15 58 0
36 -37 -38 -9 10 11 13 14 15 40 0
36 -37 -38 -9 10 11 13 14 -15 55 0
36 -37 -38 -9 10 11 13 -14 15 58 0
36 -37 -38 -9 10 11 13 -14 -15 60 0
36 -37 -38 -9 10 11 -13 14 15 55 0
-36 37 38 9 10 11 13 14 15 41 0
-36 37 38 9 10 11 13 14 -15 41 0
-36 37 38 9 10 11 13 -14 15 51 0
-36 37 38 9 10 11 13 -14 -15 40 0
-36 37 38 9 10 11 -13 14 15 62 0
-36 37 38 9 10 -11 13 14 15 55 0
-36 37 38 9 10 -11 13 14 -15 51 0
-36 37 38 9 10 -11 13 -14 15 44 0
-36 37 38 9 10 -11 13 -14 -15 56 0
-36 37 38 9 10 -11 -13 14 15 63 0
-36 37 38 9 -10 11 13 14 15 57 0
-36 37 38 9 -10 11 13 14 -15 41 0
-36 37 38 9 -10 11 13 -14 15 55 0
-36 37 38 9 -10 11 13 -14 -15 44 0
-36 37 38 9 -10 11 -13 14 15 49 0
-36 37 38 9 -10 -11 13 14 15 44 0
-36 37 38 9 -10 -11 13 14 -15 40 0
-36 37 38 9 -10 -11 13 -14 15 44 0
-36 37 38 9 -10 -11 13 -14 -15 53 0
-36 37 38 9 -10 -11 -13 14 15 58 0
-36 37 38 -9 10 11 13 14 15 40 0
-36 37 38 -9 10 11 13 14 -15 55 0
-36 37 38 -9 10 11 13 -14 15 58 0
-36 37 38 -9 10 11 13 -14 -15 60 0
-36 37 38 -9 10 11 -13 14 15 42 0
-36 37 -38 0
-36 -37 38 0
-36 -37 -38 0
